proyfinal/src/viki/013/andrea/andrea-localstore/experimentInOfficeAgust.take6/worker_5/7c5a45f8-647a-41b7-bf5c-9f00c3ac5af3.als.cnf.out
Reading from standard input... Use '--help' for help.
============================[ Problem Statistics ]=============================
|                                                                             |
|  Number of variables:         87638                                         |
|  Number of clauses:          161767                                         |
|  Parse time:                   0.04 s                                       |
|                                                                             |
============================[ Search Statistics ]==============================
| Conflicts |          ORIGINAL         |          LEARNT          | Progress |
|           |    Vars  Clauses Literals |    Limit  Clauses Lit/Cl |          |
===============================================================================
|       100 |   65077   115059   286818 |    42188      100     48 | 25.743 % |
|       250 |   60223    99254   247750 |    46407      248     79 | 31.282 % |
|       475 |   60223    99254   247750 |    51047      473     73 | 31.282 % |
|       812 |   60223    99254   247750 |    56152      810     67 | 31.282 % |
|      1318 |   60223    99254   247750 |    61767     1316     59 | 31.282 % |
|      2077 |   60195    99138   247485 |    67944     2074     54 | 31.314 % |
|      3216 |   60138    98969   247080 |    74739     3209     65 | 31.379 % |
|      4924 |   59964    98179   245249 |    82213     4894     63 | 31.578 % |
|      7486 |   59882    98084   245024 |    90434     7449     62 | 31.671 % |
|     11330 |   59843    97676   244101 |    99477    11269     74 | 31.716 % |
|     17096 |   59683    97098   242725 |   109425    17018     95 | 31.898 % |
===============================================================================
restarts              : 63
conflicts             : 18275          (7326 /sec)
decisions             : 79939          (0.00 % random) (32045 /sec)
propagations          : 27779073       (11135606 /sec)
conflict literals     : 1715033        (33.45 % deleted)
Memory used           : 39.50 MB
CPU time              : 2.49462 s

INDETERMINATE
